(set-logic QF_BV)
(set-info :source |Converted by Dunbo Cai. dunbocai@gmail.com|)
(set-info :smt-lib-version 2.0)
(set-info :category "convex body with variables with domain [-15, 15]")
(declare-fun x_0 () (_ BitVec 32))
(declare-fun x_1 () (_ BitVec 32))
(declare-fun x_2 () (_ BitVec 32))
(declare-fun x_3 () (_ BitVec 32))
(declare-fun x_4 () (_ BitVec 32))
(declare-fun x_5 () (_ BitVec 32))
(declare-fun x_6 () (_ BitVec 32))
(assert (bvsge x_0 (bvsub (_ bv0 32) (_ bv15 32))) )
(assert (bvsle x_0 (_ bv15 32)) )
(assert (bvsge x_1 (bvsub (_ bv0 32) (_ bv15 32))) )
(assert (bvsle x_1 (_ bv15 32)) )
(assert (bvsge x_2 (bvsub (_ bv0 32) (_ bv15 32))) )
(assert (bvsle x_2 (_ bv15 32)) )
(assert (bvsge x_3 (bvsub (_ bv0 32) (_ bv15 32))) )
(assert (bvsle x_3 (_ bv15 32)) )
(assert (bvsge x_4 (bvsub (_ bv0 32) (_ bv15 32))) )
(assert (bvsle x_4 (_ bv15 32)) )
(assert (bvsge x_5 (bvsub (_ bv0 32) (_ bv15 32))) )
(assert (bvsle x_5 (_ bv15 32)) )
(assert (bvsge x_6 (bvsub (_ bv0 32) (_ bv15 32))) )
(assert (bvsle x_6 (_ bv15 32)) )
(assert (bvsle (bvadd (bvmul (bvsub (_ bv0 32) (bvsdiv (_ bv360 32) (_ bv1 32) )) x_0 )(bvmul (bvsub (_ bv0 32) (bvsdiv (_ bv100 32) (_ bv1 32) )) x_1 )(bvmul (bvsub (_ bv0 32) (bvsdiv (_ bv18 32) (_ bv1 32) )) x_2 )(bvmul (bvsub (_ bv0 32) (bvsdiv (_ bv45 32) (_ bv1 32) )) x_3 )) (bvmul (bvsub (_ bv0 32) (bvsdiv (_ bv2331 32) (_ bv1 32) )) (_ bv1 32) ) )) 
(assert (bvsle (bvadd (bvmul (bvsub (_ bv0 32) (bvsdiv (_ bv24 32) (_ bv1 32) )) x_0 )(bvmul (bvsdiv (_ bv105 32) (_ bv1 32) ) x_1 )(bvmul (bvsub (_ bv0 32) (bvsdiv (_ bv112 32) (_ bv1 32) )) x_2 )(bvmul (bvsub (_ bv0 32) (bvsdiv (_ bv84 32) (_ bv1 32) )) x_4 )) (bvmul (bvsub (_ bv0 32) (bvsdiv (_ bv88 32) (_ bv1 32) )) (_ bv1 32) ) )) 
(assert (bvsle (bvadd (bvmul (bvsdiv (_ bv147 32) (_ bv1 32) ) x_0 )(bvmul (bvsub (_ bv0 32) (bvsdiv (_ bv84 32) (_ bv1 32) )) x_2 )(bvmul (bvsdiv (_ bv112 32) (_ bv1 32) ) x_3 )(bvmul (bvsub (_ bv0 32) (bvsdiv (_ bv144 32) (_ bv1 32) )) x_4 )(bvmul (bvsub (_ bv0 32) (bvsdiv (_ bv56 32) (_ bv1 32) )) x_5 )(bvmul (bvsdiv (_ bv168 32) (_ bv1 32) ) x_6 )) (bvmul (bvsub (_ bv0 32) (bvsdiv (_ bv562 32) (_ bv1 32) )) (_ bv1 32) ) )) 
(assert (bvsle (bvadd (bvmul (bvsdiv (_ bv24 32) (_ bv1 32) ) x_1 )(bvmul (bvsub (_ bv0 32) (bvsdiv (_ bv4 32) (_ bv1 32) )) x_4 )(bvmul (bvsdiv (_ bv5 32) (_ bv1 32) ) x_6 )) (bvmul (bvsdiv (_ bv144 32) (_ bv1 32) ) (_ bv1 32) ) )) 
(assert (bvsle (bvadd (bvmul (bvsub (_ bv0 32) (bvsdiv (_ bv56 32) (_ bv1 32) )) x_2 )(bvmul (bvsdiv (_ bv36 32) (_ bv1 32) ) x_4 )(bvmul (bvsub (_ bv0 32) (bvsdiv (_ bv63 32) (_ bv1 32) )) x_5 )(bvmul (bvsub (_ bv0 32) (bvsdiv (_ bv126 32) (_ bv1 32) )) x_6 )) (bvmul (bvsdiv (_ bv277 32) (_ bv1 32) ) (_ bv1 32) ) )) 
(assert (bvsle (bvadd (bvmul (bvsdiv (_ bv504 32) (_ bv1 32) ) x_0 )(bvmul (bvsdiv (_ bv441 32) (_ bv1 32) ) x_1 )(bvmul (bvsdiv (_ bv1050 32) (_ bv1 32) ) x_2 )(bvmul (bvsdiv (_ bv720 32) (_ bv1 32) ) x_3 )(bvmul (bvsub (_ bv0 32) (bvsdiv (_ bv280 32) (_ bv1 32) )) x_4 )(bvmul (bvsub (_ bv0 32) (bvsdiv (_ bv900 32) (_ bv1 32) )) x_5 )(bvmul (bvsub (_ bv0 32) (bvsdiv (_ bv1008 32) (_ bv1 32) )) x_6 )) (bvmul (bvsdiv (_ bv13448 32) (_ bv1 32) ) (_ bv1 32) ) )) 

(check-sat)
(exit)